<number of tasks>
30

<cycle time>
36

<task times>
1 8
2 7
3 19
4 10
5 2
6 6
7 14
8 10
9 1
10 4
11 14
12 15
13 5
14 12
15 9
16 10
17 2
18 10
19 18
20 16
21 21
22 14
23 16
24 7
25 17
26 9
27 25
28 7
29 14
30 2

<precedence relations>
1,4
1,5
2,11
2,12
3,16
3,17
4,7
5,6
6,7
7,8
8,9
9,26
10,24
12,13
13,14
14,15
14,20
15,22
16,20
17,18
18,19
20,21
20,24
21,22
22,23
23,27
24,25
25,26
26,27
27,28
27,29
29,30

<setup times forward>
1,4:2
1,10:1
1,12:2
1,13:2
1,14:1
1,15:1
1,16:1
1,18:1
1,19:1
1,20:1
1,21:1
1,22:1
1,23:1
2,4:2
2,6:2
2,9:2
2,10:1
2,12:2
2,16:1
2,18:1
2,19:1
3,4:2
3,6:2
3,9:2
3,10:1
3,12:2
3,13:2
3,14:1
3,15:1
3,16:1
4,2:2
4,3:2
4,5:2
4,7:2
4,10:3
4,11:2
4,14:1
4,15:3
4,16:1
4,17:2
4,18:1
4,19:1
4,20:1
4,21:3
4,22:3
4,23:3
4,24:2
4,25:2
5,4:2
5,6:2
5,10:1
5,12:2
5,13:2
5,14:1
5,15:1
5,16:1
5,18:1
5,19:1
5,20:1
5,21:1
5,22:1
5,23:1
6,2:2
6,3:2
6,7:2
6,10:3
6,11:2
6,14:1
6,15:3
6,16:1
6,17:2
6,18:1
6,19:1
6,20:1
6,21:3
6,22:3
6,23:3
6,24:2
6,25:2
7,10:1
7,12:2
7,13:2
7,14:1
7,15:1
7,16:1
7,18:1
7,19:1
7,20:1
7,21:1
7,22:1
7,23:1
8,9:2
8,10:1
8,12:2
8,13:2
8,14:1
8,15:1
8,16:1
8,18:1
8,19:1
8,20:1
8,21:1
8,22:1
8,23:1
9,2:2
9,3:2
9,10:3
9,11:2
9,14:1
9,15:3
9,16:1
9,17:2
9,18:1
9,19:1
9,20:1
9,21:3
9,22:3
9,23:3
9,24:2
9,25:2
10,1:1
10,2:1
10,3:1
10,4:3
10,5:1
10,6:3
10,7:1
10,8:1
10,9:3
10,11:1
10,12:3
10,13:3
10,14:2
10,16:2
10,17:1
10,18:2
10,19:2
10,20:2
10,24:1
11,4:2
11,6:2
11,9:2
11,10:1
11,12:2
11,13:2
11,14:1
11,15:1
11,16:1
11,18:1
11,19:1
11,20:1
11,21:1
11,22:1
11,23:1
11,26:2
11,27:2
12,1:2
12,3:2
12,5:2
12,7:2
12,8:2
12,10:3
12,11:2
12,16:1
12,17:2
12,18:1
12,19:1
13,1:2
13,3:2
13,5:2
13,7:2
13,8:2
13,10:3
13,11:2
13,14:1
13,16:1
13,17:2
13,18:1
13,19:1
14,1:1
14,3:1
14,4:1
14,5:1
14,6:1
14,7:1
14,8:1
14,9:1
14,10:2
14,11:1
14,15:2
14,17:1
15,1:1
15,3:1
15,4:3
15,5:1
15,6:3
15,7:1
15,8:1
15,9:3
15,11:1
15,16:2
15,17:1
15,18:2
15,19:2
15,20:2
15,24:1
15,25:1
15,26:3
16,1:1
16,2:1
16,4:1
16,5:1
16,6:1
16,7:1
16,8:1
16,9:1
16,10:2
16,11:1
16,12:1
16,13:1
16,15:2
16,17:1
17,4:2
17,6:2
17,9:2
17,10:1
17,12:2
17,13:2
17,14:1
17,15:1
17,16:1
17,18:1
17,20:1
17,21:1
17,22:1
17,23:1
17,26:2
17,27:2
18,1:1
18,2:1
18,4:1
18,5:1
18,6:1
18,7:1
18,8:1
18,9:1
18,10:2
18,11:1
18,12:1
18,13:1
18,15:2
18,21:2
18,22:2
18,23:2
18,24:1
18,25:1
18,26:1
18,27:1
18,28:1
18,29:1
18,30:1
19,1:1
19,2:1
19,4:1
19,5:1
19,6:1
19,7:1
19,8:1
19,9:1
19,10:2
19,11:1
19,12:1
19,13:1
19,15:2
19,21:2
19,22:2
19,23:2
19,24:1
19,25:1
19,26:1
19,27:1
19,28:1
19,29:1
19,30:1
20,1:1
20,4:1
20,5:1
20,6:1
20,7:1
20,8:1
20,9:1
20,10:2
20,11:1
20,15:2
20,17:1
20,21:2
20,24:1
21,1:1
21,4:3
21,5:1
21,6:3
21,7:1
21,8:1
21,9:3
21,11:1
21,17:1
21,18:2
21,19:2
21,24:1
21,25:1
21,26:3
22,1:1
22,4:3
22,5:1
22,6:3
22,7:1
22,8:1
22,9:3
22,11:1
22,17:1
22,18:2
22,19:2
22,24:1
22,25:1
22,26:3
23,1:1
23,4:3
23,5:1
23,6:3
23,7:1
23,8:1
23,9:3
23,11:1
23,17:1
23,18:2
23,19:2
23,24:1
23,25:1
23,26:3
23,27:3
24,4:2
24,6:2
24,9:2
24,15:1
24,18:1
24,19:1
24,21:1
24,22:1
24,23:1
25,4:2
25,6:2
25,9:2
25,15:1
25,18:1
25,19:1
25,21:1
25,22:1
25,23:1
25,26:2
26,11:2
26,15:3
26,17:2
26,18:1
26,19:1
26,21:3
26,22:3
26,23:3
27,11:2
27,17:2
27,18:1
27,19:1
27,28:2
27,29:2
28,18:1
28,19:1
29,18:1
29,19:1
30,18:1
30,19:1

<setup times backward>
1,10:1
1,15:1
1,21:1
1,22:1
1,23:1
2,10:1
3,10:1
3,15:1
4,1:2
4,2:2
4,3:2
4,5:2
4,10:3
4,11:2
4,14:1
4,15:3
4,16:1
4,17:2
4,18:1
4,19:1
4,20:1
4,21:3
4,22:3
4,23:3
4,24:2
4,25:2
5,10:1
5,15:1
5,21:1
5,22:1
5,23:1
6,1:2
6,2:2
6,3:2
6,5:2
6,10:3
6,11:2
6,14:1
6,15:3
6,16:1
6,17:2
6,18:1
6,19:1
6,20:1
6,21:3
6,22:3
6,23:3
6,24:2
6,25:2
7,10:1
7,15:1
7,21:1
7,22:1
7,23:1
8,10:1
8,15:1
8,21:1
8,22:1
8,23:1
9,1:2
9,2:2
9,3:2
9,5:2
9,7:2
9,8:2
9,10:3
9,11:2
9,14:1
9,15:3
9,16:1
9,17:2
9,18:1
9,19:1
9,20:1
9,21:3
9,22:3
9,23:3
9,24:2
9,25:2
11,10:1
11,15:1
11,21:1
11,22:1
11,23:1
12,1:2
12,2:2
12,3:2
12,5:2
12,7:2
12,8:2
12,10:3
12,11:2
12,16:1
12,17:2
12,18:1
12,19:1
13,1:2
13,2:2
13,3:2
13,5:2
13,7:2
13,8:2
13,10:3
13,11:2
13,16:1
13,17:2
13,18:1
13,19:1
14,1:1
14,2:1
14,3:1
14,5:1
14,7:1
14,8:1
14,10:2
14,11:1
14,17:1
16,1:1
16,2:1
16,3:1
16,5:1
16,7:1
16,8:1
16,10:2
16,11:1
16,15:2
16,17:1
17,10:1
17,15:1
17,21:1
17,22:1
17,23:1
18,1:1
18,2:1
18,3:1
18,5:1
18,7:1
18,8:1
18,10:2
18,11:1
18,15:2
18,17:1
18,21:2
18,22:2
18,23:2
18,24:1
18,25:1
18,28:1
18,29:1
18,30:1
19,1:1
19,2:1
19,3:1
19,5:1
19,7:1
19,8:1
19,10:2
19,11:1
19,15:2
19,17:1
19,21:2
19,22:2
19,23:2
19,24:1
19,25:1
19,28:1
19,29:1
19,30:1
20,1:1
20,2:1
20,3:1
20,5:1
20,7:1
20,8:1
20,10:2
20,11:1
20,15:2
20,17:1
24,10:1
24,15:1
24,21:1
24,22:1
24,23:1
25,10:1
25,15:1
25,21:1
25,22:1
25,23:1
26,1:2
26,2:2
26,3:2
26,5:2
26,7:2
26,8:2
26,10:3
26,11:2
26,14:1
26,15:3
26,16:1
26,17:2
26,18:1
26,19:1
26,20:1
26,21:3
26,22:3
26,23:3
26,24:2
26,25:2
27,1:2
27,2:2
27,3:2
27,5:2
27,7:2
27,8:2
27,10:3
27,11:2
27,14:1
27,15:3
27,16:1
27,17:2
27,18:1
27,19:1
27,20:1
27,21:3
27,22:3
27,23:3
27,24:2
27,25:2
28,10:1
28,15:1
28,21:1
28,22:1
28,23:1
29,10:1
29,15:1
29,21:1
29,22:1
29,23:1
30,10:1
30,15:1
30,21:1
30,22:1
30,23:1

<end>

<optimal SALBP-1 value>
10


<rand seed>
467321153

